outputs/case_308.model.txt
risk_of_harming_insured_rights = False
asset_quality_evaluation_included = False
financial_or_business_improvement_plan_completed = False
merger_completed = False
improvement_after_guidance = False
net_worth_ratio = 3
is_same_natural_person = False
policy_solicitation_underwriting_claim_included = False
is_self = True
net_worth = 100
improvement_plan_approved = False
supervisory_measures_taken = False
unable_to_pay_debt = False
financial_or_business_status_significantly_deteriorated = False
overdue_loan_management_included = False
capital_increase_completed = False
capital_adequacy_ratio = 100
is_business_responsible_by_self_or_spouse = False
unable_to_fulfill_contractual_obligations = False
profit_loss_and_net_worth_accelerated_deterioration = False
collection_management_included = False
degree_of_kinship = 3
bad_debt_writeoff_included = False
is_same_legal_person = False
reserve_provision_included = False
company_law_related_enterprise = False
is_spouse = False
improvement_plan_submitted = False
internal_handling_system_and_procedure_established = True
internal_control_and_audit_system_established = True
capital_level_4_noncompliance = False
penalty = False
financial_or_business_deterioration = False
improvement_plan_submitted_and_approved = False
same_related_enterprise = False
internal_handling_system_established = True
internal_handling_scope_compliant = False
financial_deterioration_and_no_improvement = False
internal_control_and_audit_established = True
capital_level = 0
violation_internal_control_or_handling = False
same_related_person = True
same_person = False